Weights = (
	unscheduledOptional: 150,
	continuityOfCare: 1,
	nurseEccessiveWorkload: 10,
	surgeonTransfer: 10,
	openOperatingTheater: 30,
	roomMixedAge: 5,
	patientDelay: 5,
	roomNurseSkill: 5,
);

Genders = {A, B};
ShiftTypes = {early, late, night};
AgeGroups = {infant, adult, elderly};
NurseIds = {n00, n01, n02, n03, n04, n05, n06, n07, n08, n09, n10, n11, n12};
SurgeonIds = {s0};
OperatingTheaterIds = {t0, t1};
RoomIds = {r0, r1, r2, r3, r4};
PatientIds = {p00, p01, p02, p03, p04, p05, p06, p07, p08, p09, p10, p11, p12, p13, p14, p15, p16, p17, p18, p19, p20, p21, p22, p23, p24, p25, p26, p27, p28, p29, p30, p31, p32, p33, p34, p35, p36};
OccupantIds = {a0, a1, a2, a3, a4, a5, a6, a7};

lastDay = 13;
maxDay = 23;
maxSkillLevel = 2;

nurseData = [
	(
		id: n00,
		skillLevel: 1,
		maxWorkloadPerShift: array2d(Days, ShiftTypes, [
			0, 12, 0, 
			0, 12, 0, 
			0, 12, 0, 
			0, 12, 0, 
			0, 0, 0, 
			0, 12, 0, 
			0, 12, 0, 
			0, 0, 0, 
			12, 0, 0, 
			12, 0, 0, 
			12, 0, 0, 
			12, 0, 0, 
			0, 12, 0, 
			0, 0, 12
		]),
	),
	(
		id: n01,
		skillLevel: 1,
		maxWorkloadPerShift: array2d(Days, ShiftTypes, [
			0, 12, 0, 
			0, 12, 0, 
			0, 0, 12, 
			0, 0, 12, 
			0, 0, 12, 
			0, 0, 0, 
			12, 0, 0, 
			0, 12, 0, 
			0, 12, 0, 
			0, 12, 0, 
			0, 0, 0, 
			0, 0, 12, 
			0, 0, 0, 
			12, 0, 0
		]),
	),
	(
		id: n02,
		skillLevel: 0,
		maxWorkloadPerShift: array2d(Days, ShiftTypes, [
			0, 0, 10, 
			0, 0, 0, 
			10, 0, 0, 
			10, 0, 0, 
			0, 10, 0, 
			0, 10, 0, 
			0, 0, 10, 
			0, 0, 0, 
			10, 0, 0, 
			10, 0, 0, 
			10, 0, 0, 
			10, 0, 0, 
			0, 10, 0, 
			0, 0, 10
		]),
	),
	(
		id: n03,
		skillLevel: 2,
		maxWorkloadPerShift: array2d(Days, ShiftTypes, [
			0, 5, 0, 
			0, 0, 15, 
			0, 0, 0, 
			0, 0, 0, 
			15, 0, 0, 
			15, 0, 0, 
			0, 15, 0, 
			0, 0, 15, 
			0, 0, 15, 
			0, 0, 5, 
			0, 0, 15, 
			0, 0, 0, 
			0, 15, 0, 
			0, 15, 0
		]),
	),
	(
		id: n04,
		skillLevel: 1,
		maxWorkloadPerShift: array2d(Days, ShiftTypes, [
			12, 0, 0, 
			12, 0, 0, 
			12, 0, 0, 
			0, 12, 0, 
			0, 12, 0, 
			0, 0, 0, 
			12, 0, 0, 
			0, 0, 0, 
			0, 12, 0, 
			0, 0, 0, 
			0, 12, 0, 
			0, 0, 0, 
			12, 0, 0, 
			0, 12, 0
		]),
	),
	(
		id: n05,
		skillLevel: 0,
		maxWorkloadPerShift: array2d(Days, ShiftTypes, [
			0, 10, 0, 
			0, 0, 0, 
			0, 0, 10, 
			0, 0, 0, 
			0, 10, 0, 
			0, 10, 0, 
			0, 10, 0, 
			0, 10, 0, 
			0, 10, 0, 
			0, 10, 0, 
			0, 10, 0, 
			0, 0, 10, 
			0, 0, 10, 
			0, 0, 10
		]),
	),
	(
		id: n06,
		skillLevel: 1,
		maxWorkloadPerShift: array2d(Days, ShiftTypes, [
			0, 0, 0, 
			0, 12, 0, 
			0, 0, 0, 
			0, 12, 0, 
			0, 0, 12, 
			0, 0, 12, 
			0, 0, 12, 
			0, 0, 0, 
			0, 0, 12, 
			0, 0, 12, 
			0, 0, 12, 
			0, 0, 12, 
			0, 0, 12, 
			0, 0, 0
		]),
	),
	(
		id: n07,
		skillLevel: 1,
		maxWorkloadPerShift: array2d(Days, ShiftTypes, [
			0, 0, 12, 
			0, 0, 12, 
			0, 0, 0, 
			12, 0, 0, 
			12, 0, 0, 
			0, 0, 12, 
			0, 0, 0, 
			12, 0, 0, 
			12, 0, 0, 
			12, 0, 0, 
			0, 12, 0, 
			0, 12, 0, 
			0, 0, 12, 
			0, 0, 0
		]),
	),
	(
		id: n08,
		skillLevel: 2,
		maxWorkloadPerShift: array2d(Days, ShiftTypes, [
			0, 0, 5, 
			0, 0, 0, 
			15, 0, 0, 
			0, 0, 15, 
			0, 0, 0, 
			15, 0, 0, 
			0, 0, 15, 
			0, 0, 15, 
			0, 0, 0, 
			0, 15, 0, 
			0, 0, 0, 
			15, 0, 0, 
			0, 0, 0, 
			15, 0, 0
		]),
	),
	(
		id: n09,
		skillLevel: 2,
		maxWorkloadPerShift: array2d(Days, ShiftTypes, [
			15, 0, 0, 
			15, 0, 0, 
			0, 0, 15, 
			0, 0, 0, 
			15, 0, 0, 
			0, 0, 0, 
			5, 0, 0, 
			0, 0, 0, 
			0, 0, 0, 
			0, 0, 5, 
			0, 0, 0, 
			0, 15, 0, 
			0, 0, 0, 
			15, 0, 0
		]),
	),
	(
		id: n10,
		skillLevel: 1,
		maxWorkloadPerShift: array2d(Days, ShiftTypes, [
			0, 0, 0, 
			12, 0, 0, 
			0, 12, 0, 
			0, 0, 0, 
			0, 0, 0, 
			0, 0, 0, 
			12, 0, 0, 
			12, 0, 0, 
			0, 0, 0, 
			0, 0, 12, 
			0, 0, 0, 
			0, 12, 0, 
			0, 0, 0, 
			0, 12, 0
		]),
	),
	(
		id: n11,
		skillLevel: 2,
		maxWorkloadPerShift: array2d(Days, ShiftTypes, [
			15, 0, 0, 
			0, 0, 0, 
			0, 15, 0, 
			0, 0, 0, 
			0, 0, 0, 
			0, 0, 0, 
			0, 0, 0, 
			15, 0, 0, 
			0, 0, 0, 
			0, 0, 0, 
			15, 0, 0, 
			0, 0, 0, 
			15, 0, 0, 
			0, 0, 0
		]),
	),
	(
		id: n12,
		skillLevel: 0,
		maxWorkloadPerShift: array2d(Days, ShiftTypes, [
			0, 0, 0, 
			0, 0, 0, 
			0, 0, 0, 
			10, 0, 0, 
			0, 0, 0, 
			0, 0, 0, 
			0, 0, 0, 
			0, 10, 0, 
			0, 0, 0, 
			0, 0, 0, 
			0, 0, 0, 
			0, 0, 0, 
			10, 0, 0, 
			0, 0, 0
		]),
	)
];

surgeonData = [
	(id: s0, maxSurgeryTime: [0:0, 480, 360, 480, 480, 0, 0, 360, 0, 0, 480, 600, 0, 480])
];

patientData = [
	(
		id: p00, 
		gender: A, 
		ageGroup: elderly, 
		lengthOfStay: 8, 
		workloadProduced: [0:3, 2, 1, 2, 2, 2, 2, 3, 2, 2, 2, 2, 2, 2, 1, 2, 2, 2, 2, 1, 1, 2, 2, 2],
		skillLevelRequired: [0:0, 1, 1, 1, 0, 0, 2, 1, 0, 2, 0, 0, 2, 0, 0, 1, 2, 0, 2, 0, 1, 2, 0, 0],
		mandatory: false, 
		earliestPossibleAdmission: 3, 
		latestPossibleAdmission: 13, 
		surgeryDuration: 120, 
		assignedSurgeon: s0, 
		incompatibleRooms: [],
	),
	(
		id: p01, 
		gender: B, 
		ageGroup: elderly, 
		lengthOfStay: 2, 
		workloadProduced: [0:3, 2, 2, 1, 1, 2],
		skillLevelRequired: [0:2, 1, 0, 0, 2, 0],
		mandatory: false, 
		earliestPossibleAdmission: 1, 
		latestPossibleAdmission: 13, 
		surgeryDuration: 90, 
		assignedSurgeon: s0, 
		incompatibleRooms: [],
	),
	(
		id: p02, 
		gender: A, 
		ageGroup: elderly, 
		lengthOfStay: 6, 
		workloadProduced: [0:3, 2, 2, 3, 3, 1, 2, 3, 2, 2, 3, 2, 2, 2, 1, 2, 2, 2],
		skillLevelRequired: [0:0, 2, 0, 1, 0, 0, 1, 1, 0, 0, 2, 1, 1, 1, 1, 1, 2, 1],
		mandatory: false, 
		earliestPossibleAdmission: 1, 
		latestPossibleAdmission: 13, 
		surgeryDuration: 90, 
		assignedSurgeon: s0, 
		incompatibleRooms: [r4],
	),
	(
		id: p03, 
		gender: B, 
		ageGroup: elderly, 
		lengthOfStay: 3, 
		workloadProduced: [0:3, 2, 1, 3, 1, 2, 3, 2, 2],
		skillLevelRequired: [0:1, 2, 0, 2, 1, 0, 0, 0, 0],
		mandatory: false, 
		earliestPossibleAdmission: 3, 
		latestPossibleAdmission: 13, 
		surgeryDuration: 90, 
		assignedSurgeon: s0, 
		incompatibleRooms: [],
	),
	(
		id: p04, 
		gender: B, 
		ageGroup: elderly, 
		lengthOfStay: 4, 
		workloadProduced: [0:2, 2, 2, 2, 3, 2, 3, 3, 2, 3, 2, 1],
		skillLevelRequired: [0:2, 2, 0, 1, 0, 0, 0, 0, 0, 2, 0, 0],
		mandatory: false, 
		earliestPossibleAdmission: 11, 
		latestPossibleAdmission: 13, 
		surgeryDuration: 120, 
		assignedSurgeon: s0, 
		incompatibleRooms: [],
	),
	(
		id: p05, 
		gender: A, 
		ageGroup: elderly, 
		lengthOfStay: 3, 
		workloadProduced: [0:2, 3, 1, 3, 3, 2, 3, 3, 1],
		skillLevelRequired: [0:1, 2, 1, 0, 0, 1, 0, 0, 0],
		mandatory: true, 
		earliestPossibleAdmission: 2, 
		latestPossibleAdmission: 13, 
		surgeryDuration: 60, 
		assignedSurgeon: s0, 
		incompatibleRooms: [r4],
	),
	(
		id: p06, 
		gender: B, 
		ageGroup: adult, 
		lengthOfStay: 2, 
		workloadProduced: [0:2, 3, 2, 1, 1, 2],
		skillLevelRequired: [0:0, 2, 1, 1, 1, 0],
		mandatory: false, 
		earliestPossibleAdmission: 1, 
		latestPossibleAdmission: 13, 
		surgeryDuration: 120, 
		assignedSurgeon: s0, 
		incompatibleRooms: [r3],
	),
	(
		id: p07, 
		gender: B, 
		ageGroup: elderly, 
		lengthOfStay: 3, 
		workloadProduced: [0:2, 2, 1, 2, 1, 1, 3, 2, 1],
		skillLevelRequired: [0:0, 2, 0, 0, 1, 0, 0, 2, 0],
		mandatory: true, 
		earliestPossibleAdmission: 1, 
		latestPossibleAdmission: 4, 
		surgeryDuration: 60, 
		assignedSurgeon: s0, 
		incompatibleRooms: [r1],
	),
	(
		id: p08, 
		gender: B, 
		ageGroup: elderly, 
		lengthOfStay: 3, 
		workloadProduced: [0:2, 3, 1, 3, 3, 1, 2, 1, 2],
		skillLevelRequired: [0:0, 0, 0, 1, 2, 0, 1, 2, 0],
		mandatory: false, 
		earliestPossibleAdmission: 2, 
		latestPossibleAdmission: 13, 
		surgeryDuration: 60, 
		assignedSurgeon: s0, 
		incompatibleRooms: [],
	),
	(
		id: p09, 
		gender: A, 
		ageGroup: elderly, 
		lengthOfStay: 3, 
		workloadProduced: [0:2, 2, 1, 2, 3, 1, 3, 1, 1],
		skillLevelRequired: [0:0, 1, 1, 0, 1, 0, 0, 0, 1],
		mandatory: true, 
		earliestPossibleAdmission: 2, 
		latestPossibleAdmission: 3, 
		surgeryDuration: 120, 
		assignedSurgeon: s0, 
		incompatibleRooms: [r1, r4],
	),
	(
		id: p10, 
		gender: A, 
		ageGroup: elderly, 
		lengthOfStay: 7, 
		workloadProduced: [0:2, 2, 1, 3, 2, 2, 2, 2, 2, 2, 3, 2, 3, 2, 1, 2, 1, 2, 2, 3, 2],
		skillLevelRequired: [0:0, 0, 0, 1, 1, 1, 0, 1, 0, 1, 0, 1, 1, 2, 1, 1, 2, 0, 2, 1, 0],
		mandatory: true, 
		earliestPossibleAdmission: 1, 
		latestPossibleAdmission: 3, 
		surgeryDuration: 60, 
		assignedSurgeon: s0, 
		incompatibleRooms: [r3, r4],
	),
	(
		id: p11, 
		gender: A, 
		ageGroup: elderly, 
		lengthOfStay: 3, 
		workloadProduced: [0:2, 3, 2, 3, 1, 2, 2, 3, 2],
		skillLevelRequired: [0:1, 2, 1, 1, 0, 0, 1, 0, 1],
		mandatory: true, 
		earliestPossibleAdmission: 7, 
		latestPossibleAdmission: 13, 
		surgeryDuration: 90, 
		assignedSurgeon: s0, 
		incompatibleRooms: [r4],
	),
	(
		id: p12, 
		gender: A, 
		ageGroup: elderly, 
		lengthOfStay: 3, 
		workloadProduced: [0:2, 2, 2, 2, 1, 1, 3, 2, 1],
		skillLevelRequired: [0:2, 0, 0, 1, 2, 0, 0, 0, 1],
		mandatory: true, 
		earliestPossibleAdmission: 1, 
		latestPossibleAdmission: 10, 
		surgeryDuration: 120, 
		assignedSurgeon: s0, 
		incompatibleRooms: [],
	),
	(
		id: p13, 
		gender: B, 
		ageGroup: elderly, 
		lengthOfStay: 3, 
		workloadProduced: [0:2, 2, 2, 2, 2, 1, 3, 3, 2],
		skillLevelRequired: [0:0, 0, 1, 0, 0, 0, 2, 0, 0],
		mandatory: true, 
		earliestPossibleAdmission: 3, 
		latestPossibleAdmission: 11, 
		surgeryDuration: 90, 
		assignedSurgeon: s0, 
		incompatibleRooms: [r2],
	),
	(
		id: p14, 
		gender: A, 
		ageGroup: elderly, 
		lengthOfStay: 7, 
		workloadProduced: [0:2, 2, 2, 2, 2, 1, 2, 2, 2, 3, 2, 2, 3, 2, 2, 3, 2, 1, 2, 3, 1],
		skillLevelRequired: [0:1, 0, 0, 1, 2, 0, 0, 1, 0, 1, 1, 0, 2, 0, 1, 1, 1, 0, 0, 1, 1],
		mandatory: true, 
		earliestPossibleAdmission: 2, 
		latestPossibleAdmission: 13, 
		surgeryDuration: 60, 
		assignedSurgeon: s0, 
		incompatibleRooms: [],
	),
	(
		id: p15, 
		gender: A, 
		ageGroup: elderly, 
		lengthOfStay: 3, 
		workloadProduced: [0:2, 2, 1, 2, 2, 1, 1, 3, 1],
		skillLevelRequired: [0:0, 1, 1, 1, 1, 1, 1, 1, 1],
		mandatory: false, 
		earliestPossibleAdmission: 1, 
		latestPossibleAdmission: 13, 
		surgeryDuration: 60, 
		assignedSurgeon: s0, 
		incompatibleRooms: [],
	),
	(
		id: p16, 
		gender: A, 
		ageGroup: elderly, 
		lengthOfStay: 6, 
		workloadProduced: [0:3, 2, 1, 2, 3, 2, 2, 2, 2, 2, 3, 1, 2, 1, 1, 2, 1, 2],
		skillLevelRequired: [0:2, 2, 0, 1, 1, 1, 0, 2, 1, 2, 1, 0, 1, 2, 0, 0, 2, 0],
		mandatory: false, 
		earliestPossibleAdmission: 3, 
		latestPossibleAdmission: 13, 
		surgeryDuration: 90, 
		assignedSurgeon: s0, 
		incompatibleRooms: [],
	),
	(
		id: p17, 
		gender: B, 
		ageGroup: elderly, 
		lengthOfStay: 6, 
		workloadProduced: [0:3, 3, 1, 3, 3, 2, 2, 2, 2, 2, 2, 2, 2, 2, 2, 3, 3, 1],
		skillLevelRequired: [0:2, 0, 0, 0, 1, 1, 2, 0, 1, 0, 1, 0, 2, 2, 1, 2, 1, 0],
		mandatory: false, 
		earliestPossibleAdmission: 7, 
		latestPossibleAdmission: 13, 
		surgeryDuration: 60, 
		assignedSurgeon: s0, 
		incompatibleRooms: [],
	),
	(
		id: p18, 
		gender: B, 
		ageGroup: elderly, 
		lengthOfStay: 2, 
		workloadProduced: [0:2, 2, 1, 1, 3, 2],
		skillLevelRequired: [0:1, 2, 1, 1, 0, 0],
		mandatory: false, 
		earliestPossibleAdmission: 2, 
		latestPossibleAdmission: 13, 
		surgeryDuration: 60, 
		assignedSurgeon: s0, 
		incompatibleRooms: [r4],
	),
	(
		id: p19, 
		gender: B, 
		ageGroup: adult, 
		lengthOfStay: 4, 
		workloadProduced: [0:2, 3, 1, 2, 2, 1, 2, 3, 2, 1, 1, 1],
		skillLevelRequired: [0:2, 0, 0, 1, 1, 1, 2, 2, 1, 2, 0, 0],
		mandatory: false, 
		earliestPossibleAdmission: 1, 
		latestPossibleAdmission: 13, 
		surgeryDuration: 90, 
		assignedSurgeon: s0, 
		incompatibleRooms: [r0, r1],
	),
	(
		id: p20, 
		gender: A, 
		ageGroup: elderly, 
		lengthOfStay: 2, 
		workloadProduced: [0:3, 1, 1, 3, 3, 2],
		skillLevelRequired: [0:0, 1, 0, 1, 2, 0],
		mandatory: true, 
		earliestPossibleAdmission: 3, 
		latestPossibleAdmission: 13, 
		surgeryDuration: 90, 
		assignedSurgeon: s0, 
		incompatibleRooms: [r2],
	),
	(
		id: p21, 
		gender: B, 
		ageGroup: adult, 
		lengthOfStay: 2, 
		workloadProduced: [0:2, 1, 1, 3, 3, 2],
		skillLevelRequired: [0:1, 1, 0, 1, 2, 0],
		mandatory: true, 
		earliestPossibleAdmission: 2, 
		latestPossibleAdmission: 13, 
		surgeryDuration: 60, 
		assignedSurgeon: s0, 
		incompatibleRooms: [],
	),
	(
		id: p22, 
		gender: A, 
		ageGroup: elderly, 
		lengthOfStay: 5, 
		workloadProduced: [0:3, 2, 2, 3, 3, 2, 2, 2, 2, 2, 1, 2, 2, 3, 1],
		skillLevelRequired: [0:1, 0, 1, 1, 0, 0, 1, 0, 0, 1, 2, 1, 1, 1, 1],
		mandatory: false, 
		earliestPossibleAdmission: 1, 
		latestPossibleAdmission: 13, 
		surgeryDuration: 60, 
		assignedSurgeon: s0, 
		incompatibleRooms: [],
	),
	(
		id: p23, 
		gender: B, 
		ageGroup: elderly, 
		lengthOfStay: 9, 
		workloadProduced: [0:3, 3, 2, 3, 2, 2, 2, 3, 1, 2, 2, 1, 2, 2, 1, 2, 2, 2, 3, 3, 2, 2, 3, 1, 2, 1, 1],
		skillLevelRequired: [0:0, 2, 0, 0, 1, 0, 2, 1, 1, 0, 0, 0, 2, 2, 1, 2, 2, 0, 0, 1, 0, 0, 2, 0, 1, 1, 0],
		mandatory: false, 
		earliestPossibleAdmission: 2, 
		latestPossibleAdmission: 13, 
		surgeryDuration: 60, 
		assignedSurgeon: s0, 
		incompatibleRooms: [],
	),
	(
		id: p24, 
		gender: B, 
		ageGroup: elderly, 
		lengthOfStay: 3, 
		workloadProduced: [0:3, 3, 1, 2, 3, 2, 1, 3, 1],
		skillLevelRequired: [0:2, 0, 0, 2, 1, 0, 0, 0, 0],
		mandatory: false, 
		earliestPossibleAdmission: 1, 
		latestPossibleAdmission: 13, 
		surgeryDuration: 180, 
		assignedSurgeon: s0, 
		incompatibleRooms: [],
	),
	(
		id: p25, 
		gender: B, 
		ageGroup: elderly, 
		lengthOfStay: 6, 
		workloadProduced: [0:2, 2, 1, 3, 3, 1, 2, 2, 2, 3, 2, 2, 2, 1, 2, 3, 3, 1],
		skillLevelRequired: [0:2, 1, 0, 1, 1, 1, 2, 0, 1, 2, 2, 1, 1, 2, 0, 1, 1, 0],
		mandatory: false, 
		earliestPossibleAdmission: 1, 
		latestPossibleAdmission: 13, 
		surgeryDuration: 60, 
		assignedSurgeon: s0, 
		incompatibleRooms: [],
	),
	(
		id: p26, 
		gender: A, 
		ageGroup: elderly, 
		lengthOfStay: 4, 
		workloadProduced: [0:2, 2, 2, 3, 3, 1, 3, 1, 2, 3, 2, 2],
		skillLevelRequired: [0:2, 0, 0, 0, 2, 0, 0, 2, 0, 2, 1, 0],
		mandatory: false, 
		earliestPossibleAdmission: 10, 
		latestPossibleAdmission: 13, 
		surgeryDuration: 90, 
		assignedSurgeon: s0, 
		incompatibleRooms: [r0],
	),
	(
		id: p27, 
		gender: A, 
		ageGroup: elderly, 
		lengthOfStay: 10, 
		workloadProduced: [0:3, 2, 1, 2, 3, 2, 2, 2, 2, 3, 3, 2, 2, 2, 2, 2, 2, 2, 2, 2, 1, 3, 3, 1, 2, 2, 2, 1, 3, 2],
		skillLevelRequired: [0:2, 2, 0, 0, 1, 0, 2, 2, 1, 0, 0, 1, 2, 2, 1, 1, 0, 1, 2, 2, 0, 1, 2, 0, 2, 0, 0, 0, 1, 0],
		mandatory: true, 
		earliestPossibleAdmission: 1, 
		latestPossibleAdmission: 13, 
		surgeryDuration: 120, 
		assignedSurgeon: s0, 
		incompatibleRooms: [r0, r3],
	),
	(
		id: p28, 
		gender: A, 
		ageGroup: adult, 
		lengthOfStay: 3, 
		workloadProduced: [0:3, 3, 2, 2, 3, 2, 3, 2, 2],
		skillLevelRequired: [0:0, 2, 0, 0, 0, 1, 1, 2, 0],
		mandatory: false, 
		earliestPossibleAdmission: 7, 
		latestPossibleAdmission: 13, 
		surgeryDuration: 60, 
		assignedSurgeon: s0, 
		incompatibleRooms: [r1],
	),
	(
		id: p29, 
		gender: B, 
		ageGroup: elderly, 
		lengthOfStay: 4, 
		workloadProduced: [0:2, 2, 1, 2, 2, 2, 3, 2, 1, 3, 1, 1],
		skillLevelRequired: [0:1, 2, 0, 1, 2, 0, 2, 0, 0, 0, 0, 0],
		mandatory: false, 
		earliestPossibleAdmission: 1, 
		latestPossibleAdmission: 13, 
		surgeryDuration: 60, 
		assignedSurgeon: s0, 
		incompatibleRooms: [r3],
	),
	(
		id: p30, 
		gender: B, 
		ageGroup: elderly, 
		lengthOfStay: 2, 
		workloadProduced: [0:2, 2, 2, 3, 1, 1],
		skillLevelRequired: [0:1, 1, 1, 2, 1, 0],
		mandatory: false, 
		earliestPossibleAdmission: 2, 
		latestPossibleAdmission: 13, 
		surgeryDuration: 90, 
		assignedSurgeon: s0, 
		incompatibleRooms: [r3],
	),
	(
		id: p31, 
		gender: A, 
		ageGroup: elderly, 
		lengthOfStay: 3, 
		workloadProduced: [0:3, 2, 2, 2, 3, 2, 1, 1, 1],
		skillLevelRequired: [0:1, 1, 0, 0, 1, 0, 2, 2, 1],
		mandatory: false, 
		earliestPossibleAdmission: 2, 
		latestPossibleAdmission: 13, 
		surgeryDuration: 60, 
		assignedSurgeon: s0, 
		incompatibleRooms: [],
	),
	(
		id: p32, 
		gender: B, 
		ageGroup: elderly, 
		lengthOfStay: 7, 
		workloadProduced: [0:2, 3, 2, 2, 2, 2, 3, 2, 1, 3, 2, 1, 3, 2, 2, 2, 1, 1, 3, 2, 1],
		skillLevelRequired: [0:2, 0, 1, 1, 1, 0, 1, 1, 0, 2, 1, 0, 2, 0, 0, 2, 1, 1, 1, 2, 0],
		mandatory: false, 
		earliestPossibleAdmission: 2, 
		latestPossibleAdmission: 13, 
		surgeryDuration: 60, 
		assignedSurgeon: s0, 
		incompatibleRooms: [],
	),
	(
		id: p33, 
		gender: B, 
		ageGroup: elderly, 
		lengthOfStay: 5, 
		workloadProduced: [0:2, 3, 2, 2, 2, 1, 3, 2, 2, 2, 2, 2, 2, 3, 1],
		skillLevelRequired: [0:2, 1, 0, 1, 2, 1, 0, 0, 0, 2, 0, 1, 2, 0, 0],
		mandatory: false, 
		earliestPossibleAdmission: 1, 
		latestPossibleAdmission: 13, 
		surgeryDuration: 120, 
		assignedSurgeon: s0, 
		incompatibleRooms: [],
	),
	(
		id: p34, 
		gender: A, 
		ageGroup: elderly, 
		lengthOfStay: 4, 
		workloadProduced: [0:2, 2, 2, 2, 3, 1, 3, 2, 2, 2, 2, 1],
		skillLevelRequired: [0:1, 0, 0, 2, 1, 0, 1, 1, 0, 1, 0, 0],
		mandatory: true, 
		earliestPossibleAdmission: 4, 
		latestPossibleAdmission: 13, 
		surgeryDuration: 180, 
		assignedSurgeon: s0, 
		incompatibleRooms: [],
	),
	(
		id: p35, 
		gender: A, 
		ageGroup: adult, 
		lengthOfStay: 4, 
		workloadProduced: [0:3, 3, 2, 2, 3, 2, 2, 3, 2, 3, 3, 2],
		skillLevelRequired: [0:1, 0, 0, 2, 0, 0, 0, 1, 0, 0, 0, 0],
		mandatory: false, 
		earliestPossibleAdmission: 3, 
		latestPossibleAdmission: 13, 
		surgeryDuration: 120, 
		assignedSurgeon: s0, 
		incompatibleRooms: [],
	),
	(
		id: p36, 
		gender: A, 
		ageGroup: elderly, 
		lengthOfStay: 5, 
		workloadProduced: [0:3, 3, 2, 3, 2, 2, 3, 2, 1, 2, 3, 1, 2, 1, 2],
		skillLevelRequired: [0:0, 1, 0, 1, 0, 0, 0, 2, 0, 0, 1, 1, 2, 1, 1],
		mandatory: false, 
		earliestPossibleAdmission: 1, 
		latestPossibleAdmission: 13, 
		surgeryDuration: 90, 
		assignedSurgeon: s0, 
		incompatibleRooms: [r0, r1],
	)
];

occupantData = [
	(
		id: a0, 
		gender: A, 
		ageGroup: elderly, 
		lengthOfStay: 6, 
		workloadProduced: [0:1, 2, 1, 2, 1, 1, 1, 2, 1, 3, 3, 1, 3, 1, 1, 2, 3, 1],
		skillLevelRequired: [0:2, 1, 0, 1, 0, 1, 1, 2, 0, 2, 0, 0, 2, 1, 1, 1, 2, 0],
		assignedRoom: r1, 
	),
	(
		id: a1, 
		gender: A, 
		ageGroup: elderly, 
		lengthOfStay: 9, 
		workloadProduced: [0:3, 3, 1, 3, 2, 1, 2, 1, 1, 2, 1, 1, 3, 2, 1, 2, 1, 1, 3, 1, 1, 3, 3, 1, 1, 3, 1],
		skillLevelRequired: [0:0, 0, 0, 0, 1, 0, 0, 1, 1, 1, 2, 1, 2, 0, 0, 0, 2, 0, 0, 2, 0, 0, 2, 0, 0, 0, 0],
		assignedRoom: r1, 
	),
	(
		id: a2, 
		gender: B, 
		ageGroup: elderly, 
		lengthOfStay: 1, 
		workloadProduced: [0:3, 1, 1],
		skillLevelRequired: [0:2, 0, 0],
		assignedRoom: r0, 
	),
	(
		id: a3, 
		gender: A, 
		ageGroup: elderly, 
		lengthOfStay: 3, 
		workloadProduced: [0:1, 3, 1, 3, 3, 1, 1, 2, 1],
		skillLevelRequired: [0:2, 1, 1, 1, 2, 0, 2, 1, 1],
		assignedRoom: r4, 
	),
	(
		id: a4, 
		gender: A, 
		ageGroup: elderly, 
		lengthOfStay: 2, 
		workloadProduced: [0:3, 2, 1, 2, 2, 1],
		skillLevelRequired: [0:1, 1, 1, 1, 1, 0],
		assignedRoom: r2, 
	),
	(
		id: a5, 
		gender: A, 
		ageGroup: adult, 
		lengthOfStay: 1, 
		workloadProduced: [0:2, 1, 1],
		skillLevelRequired: [0:0, 2, 1],
		assignedRoom: r3, 
	),
	(
		id: a6, 
		gender: A, 
		ageGroup: elderly, 
		lengthOfStay: 3, 
		workloadProduced: [0:3, 3, 1, 2, 2, 1, 3, 2, 1],
		skillLevelRequired: [0:1, 0, 1, 1, 1, 0, 1, 1, 1],
		assignedRoom: r4, 
	),
	(
		id: a7, 
		gender: A, 
		ageGroup: elderly, 
		lengthOfStay: 2, 
		workloadProduced: [0:2, 1, 1, 3, 3, 1],
		skillLevelRequired: [0:1, 0, 0, 0, 2, 1],
		assignedRoom: r4, 
	)
];

operatingTheaterData = [
	(
		id: t0, 
		availability: [0:480, 720, 720, 720, 600, 600, 720, 720, 720, 720, 720, 600, 600, 720],
	),
	(
		id: t1, 
		availability: [0:480, 600, 600, 600, 720, 600, 0, 600, 600, 720, 600, 480, 600, 0],
	)
];

roomData = [
	(id: r0, capacity: 3, ),
	(id: r1, capacity: 2, ),
	(id: r2, capacity: 4, ),
	(id: r3, capacity: 3, ),
	(id: r4, capacity: 4, )
];

